solution status: optimal solution found
objective value:                                    0
shell_i_$_123__7                                    1 	(obj:0)
shell_i_$_3__7                                      1 	(obj:0)
shell_j_thing.thing.chamber[0].thingy.p2                    1 	(obj:0)
shell_j_thing.horiz_flush_hole                      1 	(obj:0)
shell_j_$_147__7                                    1 	(obj:0)
shell_i_$_7__7                                      1 	(obj:0)
shell_j_$_7__7                                      1 	(obj:0)
shell_j_$_2__7                                      1 	(obj:0)
shell_j_$_86__7                                     1 	(obj:0)
shell_j_thing.loop_exit_ctrl_hole                    1 	(obj:0)
shell_j_thing.thing.chamber[2].thingy.r3c                    1 	(obj:0)
shell_j_thing.thing.chamber[2].thingy.v2                    1 	(obj:0)
shell_j_$_22__7                                     1 	(obj:0)
shell_j_thing.thing.chamber[2].thingy.v4                    1 	(obj:0)
shell_j_thing.bead_trap_flush_hole                    1 	(obj:0)
shell_j_$_125__7                                    1 	(obj:0)
shell_i_$_96__7                                     1 	(obj:0)
shell_j_thing.thing.chamber[2].thingy.v6                    1 	(obj:0)
shell_i_$_18__7                                     1 	(obj:0)
shell_i_thing.thing.chamber[1].thingy.r2c                    1 	(obj:0)
shell_j_thing.thing.chamber[2].thingy.r2c                    1 	(obj:0)
shell_j_$_101__7                                    1 	(obj:0)
shell_j_$_143__7                                    1 	(obj:0)
shell_i_$_98__7                                     1 	(obj:0)
shell_j_$_98__7                                     1 	(obj:0)
shell_j_thing.thing.chamber[0].thingy.p0                    1 	(obj:0)
shell_j_$_17__7                                     1 	(obj:0)
shell_i_thing.thing.chamber[2].thingy.v3                    1 	(obj:0)
shell_j_$_16__7                                     1 	(obj:0)
shell_i_$_12__7                                     1 	(obj:0)
shell_j_$_100__7                                    1 	(obj:0)
shell_j_$_122__7                                    1 	(obj:0)
shell_i_$_104__7                                    1 	(obj:0)
shell_i_thing.bead_flush_hole                       1 	(obj:0)
shell_i_thing.thing.chamber[1].thingy.v3                    1 	(obj:0)
shell_j_thing.thing.chamber[1].thingy.v3                    1 	(obj:0)
shell_j_thing.thing.chamber[0].thingy.r1c                    1 	(obj:0)
shell_j_$_84__7                                     1 	(obj:0)
shell_j_$_4__7                                      1 	(obj:0)
shell_i_thing.vertical_flush_hole                    1 	(obj:0)
shell_i_$_26__7                                     1 	(obj:0)
shell_i_thing.bead_trap_ctrl_hole                    1 	(obj:0)
shell_j_thing.thing.chamber[2].thingy.r4c                    1 	(obj:0)
shell_i_$_93__7                                     1 	(obj:0)
shell_j_$_148__7                                    1 	(obj:0)
shell_i_$_88__7                                     1 	(obj:0)
shell_j_thing.vertical_ctrl_hole                    1 	(obj:0)
shell_j_$_120__7                                    1 	(obj:0)
shell_j_thing.thing.chamber[1].thingy.v10                    1 	(obj:0)
shell_i_thing.thing.chamber[1].thingy.v2                    1 	(obj:0)
shell_j_$_5__7                                      1 	(obj:0)
shell_i_$_8__7                                      1 	(obj:0)
shell_j_thing.thing.chamber[2].thingy.v8                    1 	(obj:0)
shell_i_$_9__7                                      1 	(obj:0)
shell_j_$_19__7                                     1 	(obj:0)
shell_j_thing.thing.chamber[1].thingy.r4c                    1 	(obj:0)
shell_j_thing.thing.chamber[1].thingy.r3c                    1 	(obj:0)
shell_i_$_102__7                                    1 	(obj:0)
$_98__7_x                                           9 	(obj:0)
$_98__7_y                                           9 	(obj:0)
$_98__7_z                                          12 	(obj:0)
thing.horiz_flush_hole_z                           21 	(obj:0)
thing.thing.chamber[2].thingy.r3c_x                    8 	(obj:0)
thing.thing.chamber[0].thingy.p0_x                    8 	(obj:0)
thing.thing.chamber[0].thingy.p0_y                    9 	(obj:0)
thing.thing.chamber[0].thingy.p0_z                   16 	(obj:0)
thing.thing.chamber[2].thingy.r3c_y                    9 	(obj:0)
thing.thing.chamber[2].thingy.r3c_z                   18 	(obj:0)
$_17__7_x                                           7 	(obj:0)
$_17__7_y                                           9 	(obj:0)
$_17__7_z                                          24 	(obj:0)
$_3__7_y                                            8 	(obj:0)
$_3__7_z                                           16 	(obj:0)
thing.thing.chamber[2].thingy.v3_x                    9 	(obj:0)
thing.thing.chamber[2].thingy.v3_y                    9 	(obj:0)
thing.thing.chamber[2].thingy.v3_z                   21 	(obj:0)
thing.thing.chamber[2].thingy.v2_x                    8 	(obj:0)
thing.thing.chamber[2].thingy.v2_y                    9 	(obj:0)
$_16__7_x                                           7 	(obj:0)
$_16__7_y                                           9 	(obj:0)
$_16__7_z                                          25 	(obj:0)
thing.thing.chamber[2].thingy.v2_z                   20 	(obj:0)
$_147__7_x                                          8 	(obj:0)
$_12__7_x                                           9 	(obj:0)
$_12__7_y                                           3 	(obj:0)
$_12__7_z                                          11 	(obj:0)
$_147__7_y                                          9 	(obj:0)
$_22__7_x                                           8 	(obj:0)
$_100__7_x                                          9 	(obj:0)
$_100__7_y                                          9 	(obj:0)
$_100__7_z                                         24 	(obj:0)
$_22__7_y                                           9 	(obj:0)
$_22__7_z                                          21 	(obj:0)
$_122__7_x                                          6 	(obj:0)
$_122__7_y                                          9 	(obj:0)
$_122__7_z                                         13 	(obj:0)
$_147__7_z                                         25 	(obj:0)
$_123__7_z                                         12 	(obj:0)
$_104__7_x                                          9 	(obj:0)
$_104__7_y                                          7 	(obj:0)
$_104__7_z                                         14 	(obj:0)
thing.thing.chamber[2].thingy.v4_x                    8 	(obj:0)
thing.thing.chamber[2].thingy.v4_y                    9 	(obj:0)
thing.bead_flush_hole_x                             9 	(obj:0)
thing.bead_flush_hole_y                             8 	(obj:0)
thing.bead_flush_hole_z                            17 	(obj:0)
thing.thing.chamber[2].thingy.v4_z                   17 	(obj:0)
$_123__7_x                                          9 	(obj:0)
thing.thing.chamber[1].thingy.v3_x                    9 	(obj:0)
thing.thing.chamber[1].thingy.v3_y                    9 	(obj:0)
thing.thing.chamber[1].thingy.v3_z                   18 	(obj:0)
$_7__7_x                                            9 	(obj:0)
thing.bead_trap_flush_hole_x                        8 	(obj:0)
thing.thing.chamber[0].thingy.r1c_x                    6 	(obj:0)
thing.thing.chamber[0].thingy.r1c_y                    9 	(obj:0)
thing.thing.chamber[0].thingy.r1c_z                   16 	(obj:0)
thing.bead_trap_flush_hole_y                        9 	(obj:0)
thing.bead_trap_flush_hole_z                       14 	(obj:0)
$_84__7_x                                           6 	(obj:0)
$_84__7_y                                           9 	(obj:0)
$_84__7_z                                          19 	(obj:0)
$_7__7_y                                            9 	(obj:0)
$_7__7_z                                           19 	(obj:0)
$_4__7_x                                            9 	(obj:0)
$_4__7_y                                            9 	(obj:0)
$_4__7_z                                           23 	(obj:0)
$_125__7_x                                          9 	(obj:0)
$_125__7_y                                          9 	(obj:0)
thing.vertical_flush_hole_x                         9 	(obj:0)
thing.vertical_flush_hole_y                         8 	(obj:0)
thing.vertical_flush_hole_z                        21 	(obj:0)
$_125__7_z                                         16 	(obj:0)
thing.thing.chamber[0].thingy.p2_x                    9 	(obj:0)
$_26__7_x                                           9 	(obj:0)
$_26__7_y                                           3 	(obj:0)
$_26__7_z                                          10 	(obj:0)
thing.thing.chamber[0].thingy.p2_y                    9 	(obj:0)
$_96__7_x                                           9 	(obj:0)
thing.bead_trap_ctrl_hole_x                         9 	(obj:0)
thing.bead_trap_ctrl_hole_y                         1 	(obj:0)
thing.bead_trap_ctrl_hole_z                        12 	(obj:0)
$_96__7_y                                           7 	(obj:0)
$_96__7_z                                          20 	(obj:0)
thing.thing.chamber[2].thingy.r4c_x                    7 	(obj:0)
thing.thing.chamber[2].thingy.r4c_y                    9 	(obj:0)
thing.thing.chamber[2].thingy.r4c_z                   17 	(obj:0)
$_2__7_x                                            9 	(obj:0)
$_2__7_y                                            9 	(obj:0)
$_93__7_x                                           9 	(obj:0)
$_93__7_y                                           5 	(obj:0)
$_93__7_z                                          13 	(obj:0)
thing.thing.chamber[2].thingy.v6_x                    5 	(obj:0)
thing.thing.chamber[2].thingy.v6_y                    9 	(obj:0)
$_148__7_x                                          4 	(obj:0)
$_148__7_y                                          9 	(obj:0)
$_148__7_z                                         25 	(obj:0)
thing.thing.chamber[2].thingy.v6_z                   20 	(obj:0)
$_2__7_z                                           25 	(obj:0)
$_88__7_x                                           9 	(obj:0)
$_88__7_y                                           3 	(obj:0)
$_88__7_z                                          13 	(obj:0)
thing.thing.chamber[0].thingy.p2_z                   15 	(obj:0)
$_18__7_x                                           9 	(obj:0)
thing.vertical_ctrl_hole_x                          5 	(obj:0)
thing.vertical_ctrl_hole_y                          9 	(obj:0)
thing.vertical_ctrl_hole_z                         17 	(obj:0)
$_18__7_y                                           7 	(obj:0)
$_18__7_z                                          25 	(obj:0)
$_120__7_x                                          9 	(obj:0)
$_120__7_y                                          9 	(obj:0)
$_120__7_z                                         13 	(obj:0)
$_123__7_y                                          3 	(obj:0)
$_86__7_x                                           7 	(obj:0)
thing.thing.chamber[1].thingy.v10_x                    7 	(obj:0)
thing.thing.chamber[1].thingy.v10_y                    9 	(obj:0)
thing.thing.chamber[1].thingy.v10_z                   15 	(obj:0)
thing.thing.chamber[1].thingy.r2c_x                    9 	(obj:0)
thing.thing.chamber[1].thingy.r2c_y                    7 	(obj:0)
thing.thing.chamber[1].thingy.v2_x                    9 	(obj:0)
thing.thing.chamber[1].thingy.v2_y                    8 	(obj:0)
thing.thing.chamber[1].thingy.v2_z                   18 	(obj:0)
thing.thing.chamber[1].thingy.r2c_z                   16 	(obj:0)
$_86__7_y                                           9 	(obj:0)
$_5__7_x                                            5 	(obj:0)
$_5__7_y                                            9 	(obj:0)
$_5__7_z                                           25 	(obj:0)
$_86__7_z                                          16 	(obj:0)
thing.thing.chamber[2].thingy.r2c_x                    7 	(obj:0)
$_8__7_x                                            9 	(obj:0)
$_8__7_y                                            3 	(obj:0)
$_8__7_z                                           17 	(obj:0)
thing.thing.chamber[2].thingy.r2c_y                    9 	(obj:0)
thing.thing.chamber[2].thingy.r2c_z                   18 	(obj:0)
thing.thing.chamber[2].thingy.v8_x                    6 	(obj:0)
thing.thing.chamber[2].thingy.v8_y                    9 	(obj:0)
thing.thing.chamber[2].thingy.v8_z                   18 	(obj:0)
$_3__7_x                                            9 	(obj:0)
thing.horiz_flush_hole_x                            7 	(obj:0)
$_9__7_x                                            9 	(obj:0)
$_9__7_y                                            1 	(obj:0)
$_9__7_z                                           17 	(obj:0)
$_101__7_x                                          9 	(obj:0)
$_101__7_y                                          9 	(obj:0)
$_19__7_x                                           7 	(obj:0)
$_19__7_y                                           9 	(obj:0)
$_19__7_z                                          19 	(obj:0)
$_101__7_z                                         20 	(obj:0)
thing.loop_exit_ctrl_hole_x                         6 	(obj:0)
thing.thing.chamber[1].thingy.r4c_x                    6 	(obj:0)
thing.thing.chamber[1].thingy.r4c_y                    9 	(obj:0)
thing.thing.chamber[1].thingy.r4c_z                   14 	(obj:0)
thing.loop_exit_ctrl_hole_y                         9 	(obj:0)
$_143__7_x                                          4 	(obj:0)
thing.thing.chamber[1].thingy.r3c_x                    9 	(obj:0)
thing.thing.chamber[1].thingy.r3c_y                    9 	(obj:0)
thing.thing.chamber[1].thingy.r3c_z                   17 	(obj:0)
$_143__7_y                                          9 	(obj:0)
$_143__7_z                                         17 	(obj:0)
$_102__7_x                                          9 	(obj:0)
$_102__7_y                                          8 	(obj:0)
$_102__7_z                                         19 	(obj:0)
thing.loop_exit_ctrl_hole_z                        17 	(obj:0)
thing.horiz_flush_hole_y                            9 	(obj:0)
